letting n_nurses=25
letting n_days=7
letting n_shift_types=4
letting max_covers=10
letting t_covers=61
letting covers=[9,0,6,0,9,3,1,0,1,0,0,0,8,6,0,0,8,0,10,0,0,0,0,0,0,0,0,0]
letting prefes=[2,1,1,4,2,2,4,4,4,1,4,4,1,4,1,4,1,4,1,4,1,4,1,4,1,4,1,4,1,1,4,2,2,1,4,4,1,3,4,2,2,1,4,4,2,1,4,4,2,1,4,4,2,1,4,4,2,1,1,4,2,2,1,4,1,1,4,4,1,4,1,4,1,4,1,4,1,4,1,4,1,4,1,4,1,1,4,2,2,2,4,1,1,1,4,2,1,1,1,1,1,1,1,1,1,1,1,1,1,1,1,1,1,1,1,4,2,2,4,4,4,1,4,4,2,1,4,4,2,1,4,4,2,1,4,4,2,1,4,4,1,3,1,4,2,2,4,4,1,3,4,4,2,1,1,4,2,1,1,4,2,1,1,4,2,1,1,4,1,1,1,2,1,2,4,1,1,3,4,2,2,1,1,1,2,1,1,1,2,1,1,1,2,1,1,1,1,1,1,4,2,2,4,4,1,1,4,4,2,1,1,4,2,1,1,4,2,1,1,4,2,1,1,4,1,1,1,4,2,1,4,4,1,1,4,4,2,1,1,4,2,1,1,4,2,1,1,4,2,1,1,4,1,3,1,4,2,2,1,4,1,1,4,4,2,1,1,4,2,1,1,4,2,1,1,4,2,1,1,4,2,1,1,4,2,2,4,4,1,1,4,4,2,1,1,4,2,1,1,4,2,1,1,4,2,1,1,4,1,3,1,4,2,2,4,4,2,1,4,4,2,1,1,4,2,1,1,4,2,1,1,4,2,1,1,4,1,1,1,4,2,2,1,1,1,1,4,4,2,1,1,1,2,1,1,1,2,1,1,1,2,1,1,1,2,1,1,4,2,1,4,4,1,1,4,4,2,1,1,4,2,1,1,4,2,1,1,4,2,1,1,4,1,1,1,4,2,2,4,4,1,1,1,4,2,1,1,4,2,1,1,4,2,1,1,4,2,1,1,4,1,1,1,4,2,2,4,4,1,1,1,4,2,1,4,4,2,1,4,4,2,1,4,4,2,1,4,4,1,1,1,4,2,2,4,4,1,1,1,4,2,1,1,4,2,1,1,4,2,1,1,4,2,1,1,4,1,1,1,2,1,1,4,4,1,1,4,2,2,4,4,4,2,4,4,4,2,4,4,4,2,4,4,4,1,1,1,4,2,2,4,4,1,1,4,4,1,1,1,4,1,1,1,4,1,1,1,4,1,1,1,4,1,3,4,4,1,2,4,4,4,1,1,4,1,1,1,4,1,1,1,4,1,1,1,4,1,1,1,4,1,1,1,4,1,2,4,1,1,3,4,4,2,1,1,1,2,1,1,1,2,1,1,1,2,1,1,1,2,1,1,4,2,2,1,4,1,1,4,4,2,4,4,4,2,4,4,4,2,4,4,4,2,4,4,4,1,1,1,2,1,2,4,4,1,3,4,2,2,1,1,4,2,1,1,4,2,1,1,4,2,1,1,4,1,1,4,4,2,2,1,4,1,1,1,4,2,4,1,4,2,4,1,4,2,4,1,4,2,4,1,4,1,3,4,4,2,1,4,1,4,1,4,4,2,1,1,1,2,1,1,1,2,1,1,1,2,1,1,1]
letting ub =  295
